c 124_4_checker_5cl.cnf
c
c field = 124
c formula set type = 4_checker_5cl
c
p cnf 5 6
240 
242 
244 
248 
-250 
241 
243 
245 
249 
-251 
150 
182 
214 
278 
-310 
151 
183 
215 
279 
-311 
218 
274 
302 
330 
-190 
219 
275 
303 
331 
-191 
